language ESSENCE' 1.0
$ minion Nodes: 1
$ minion TotalTime: 0.000445
$ Savile Row TotalTime: 0.156
letting pain_tuple4_tuple2 be [8]
letting pain_tuple1 be [2]
letting pain_tuple4_tuple3 be [0]
letting pain_tuple4_tuple1 be [6]
letting pain_tuple3_tuple2 be [2]
letting pain_tuple3_tuple1 be [7]
letting pain_tuple2_tuple1 be [5]
